NAME: ../File/prFile/tspFile/tsp_file44.tsp
COMMENT: TSP file generated by Python
TYPE: TSP
DIMENSION: 30
EDGE_WEIGHT_TYPE: EUC_2D
NODE_COORD_SECTION
1 63 3
2 20 58
3 72 21
4 53 42
5 42 33
6 2 76
7 65 10
8 72 19
9 9 83
10 67 96
11 3 93
12 32 78
13 57 29
14 25 53
15 93 54
16 23 7
17 67 49
18 19 73
19 93 51
20 93 58
21 10 27
22 31 25
23 49 37
24 71 43
25 99 7
26 40 60
27 64 99
28 48 100
29 65 33
30 14 44
EOF
